c This is QMaxSAT 2017 based on 14.07
c This is Glucose 3.0
c This is MiniSat 2.2.0
c WARNING: for repeatability, setting FPU to use double precision
c card = mrwto, comp = 0, pmodel = 0, narr = 2, mct = 42, verb = 0
cr firstCPXsol 0 0 0
c top = 127531
c |  Number of variables:    70768                                            |
c |  Number of clauses:      52867618                                         |
c |  Weight of hard clauses: 127531                                           |
c |  Number of soft clauses: 3444                                             |
c |  Number of unit soft clauses: 3444                                        |
c |  Maximum Cardinality (by unit): 255060       (255060      )               |
c last restart ## conflicts  :  104 3407 
o 2247 | cpuTime 4.52248 s
c Sum of weights = 127530
c A number of soft clauses remained = 1722
c MRWTO encoding for Pseudo-Boolean Constraints
c sizeMax=2247
c No.0 Divisor=14	generated by pow1
c No.1 Divisor=14	generated by pow1
c No.2 Divisor=14	generated by pow1
c p0= 14	p1= 14	p2= 14	
c number of digits = 4
c linkingVar[0].size = 14, linkingVar[1].size = 14, linkingVar[2].size = 12, linkingVar[3].size = 1, 
c Pseudo-Boolean Constraints: 38805 variables and 418560 clauses
c Sum of weights = 127530
c A number of soft clauses remained = 1722
c MRWTO encoding for Pseudo-Boolean Constraints
c sizeMax=2247
c No.0 Divisor=14	generated by pow1
c No.1 Divisor=14	generated by pow1
c No.2 Divisor=14	generated by pow1
c p0= 14	p1= 14	p2= 14	
c number of digits = 4
c linkingVar[0].size = 14, linkingVar[1].size = 14, linkingVar[2].size = 12, linkingVar[3].size = 1, 
c Pseudo-Boolean Constraints: 38805 variables and 418560 clauses
s UNKNOWN
c Search is stopped by a limit (maybe time-limit)
cr positiVarArr: [ | 7@1(1->7) | 55@1(2->13) | 222@1(6->12) | 254@1(7->2) | 334@1(8->40) | 371@1(9->35) | 399@1(10->21) | 435@1(11->15) | 471@1(12->9) | 510@1(13->6) | 629@1(15->41) | 669@1(16->39) | 710@1(17->38) | 738@1(18->24) | 779@1(19->23) | 817@1(20->19) | 856@1(21->16) | 892@1(22->10) | 925@1(23->1) | 977@1(24->11) | 1016@1(25->8) | 1453@1(35->25) | 1576@1(38->22) | 1616@1(39->20) | 1656@1(40->18) | 1697@1(41->17) | 1769@2(1->5) | 1849@2(3->1) | 1921@2(4->31) | 1936@2(5->4) | 2352@2(14->42) | 2851@2(26->37) | 2892@2(27->36) | 2932@2(28->34) | 2973@2(29->33) | 3014@2(30->32) | 3054@2(31->30) | 3095@2(32->29) | 3136@2(33->28) | 3177@2(34->27) | 3260@2(36->26) | 3290@2(37->14) | 3489@2(42->3) | ]
cr the 1-th chain: [ 1->7->2->13->6->12->9->35->25->8->40->18->24->11->15->41->17->38->22->10->21->16->39->20->19->23->1 ] (#non-depot=25) {#cumul.=26}
cr the 2-th chain: [ 1->5->4->31->30->32->29->33->28->34->27->36->26->37->14->42->3->1 ] (#non-depot=16) {#cumul.=42}
c Latest Answer = 0 by 1 loops
c restarts              : 40316
c conflicts             : 11187650       (3133 /sec)
c decisions             : 203696482      (0.00 % random) (57034 /sec)
c propagations          : 10905831357    (3053592 /sec)
c conflict literals     : 6569160355     (5.07 % deleted)
c Memory used           : 5380.00 MB
c CPU time              : 3571.48 s
